p tw 48 65
1 2
1 7
7 8
7 13
13 14
13 19
19 20
25 26
25 31
31 32
31 37
37 38
37 43
43 44
2 3
2 8
8 9
8 14
14 15
14 20
20 26
26 32
32 33
38 44
44 45
3 4
3 9
15 21
21 22
21 27
27 33
33 34
39 40
45 46
4 5
4 10
10 11
10 16
16 17
22 23
22 28
28 29
28 34
34 35
34 40
40 41
46 47
5 6
5 11
11 12
11 17
17 18
17 23
23 24
23 29
29 30
41 42
41 47
47 48
6 12
18 24
24 30
30 36
36 42
42 48
